\ Model opf_with_dc_load_flow_copy
\ LP format - for model browsing. Use MPS format to capture full model detail.
Minimize
 
Subject To
 heat_demand_coverage_31_29: flexible_load_31[29]
   + 38.71858087947059 ts_in_31_29 - 38.71858087947059 ts_out_31_29
   = 0.2531343384774337
 storage_charging_31_29: 0.0258273928766388 flexible_load_31[29]
   + ts_in_31_29 <= 0
Bounds
 flexible_load_31[29] free
 ts_in_31_29 free
End
